scenarios/sols/small/emicp_milp/016.sol
objective value:                      1.3072807138134
x(0,3,0)                                            1 	(obj:0)
x(1,10,0)                                           1 	(obj:0)
x(2,1,0)                                            1 	(obj:0)
x(3,2,0)                                            1 	(obj:0)
x(4,5,1)                                            1 	(obj:0)
x(5,14,1)                                           1 	(obj:0)
x(10,0,0)                                           1 	(obj:0)
x(14,4,1)                                           1 	(obj:0)
xc(0,9)                                             1 	(obj:0)
xc(5,2)                                             1 	(obj:0)
u(1,0)                               1.22620458248156 	(obj:0)
u(2,0)                              0.491580224890275 	(obj:0)
u(3,0)                              0.262297888636351 	(obj:0)
u(4,0)                                1.3072807138134 	(obj:0)
u(5,1)                              0.653640356906701 	(obj:0)
u(6,0)                                1.3072807138134 	(obj:0)
u(7,0)                                1.3072807138134 	(obj:0)
u(10,0)                               1.3072807138134 	(obj:0)
u(10,1)                               0.1051986682109 	(obj:0)
u(11,0)                            0.0794987294641007 	(obj:0)
u(11,1)                               0.1357377084048 	(obj:0)
u(12,0)                             0.313034202305499 	(obj:0)
u(13,0)                             0.203474222008499 	(obj:0)
u(14,0)                             0.966766689859491 	(obj:0)
u(14,1)                               1.3072807138134 	(obj:0)
u(15,0)                             0.549949183475499 	(obj:0)
u(15,1)                            0.0551200028107992 	(obj:0)
u(16,0)                             0.490036744889998 	(obj:0)
u(17,0)                               0.5952191343822 	(obj:0)
u(18,0)                             0.230497220715199 	(obj:0)
u(19,0)                               0.2846194091626 	(obj:0)
u(19,1)                                 0.25510549022 	(obj:0)
f(0,9,0)                                            1 	(obj:0)
f(0,9,1)                                            1 	(obj:0)
f(0,9,2)                                            1 	(obj:0)
f(0,9,3)                                            1 	(obj:0)
f(0,9,4)                                            1 	(obj:0)
f(1,10,1)                                           1 	(obj:0)
f(1,10,2)                                           1 	(obj:0)
f(1,10,3)                                           1 	(obj:0)
f(1,10,4)                                           1 	(obj:0)
f(2,1,2)                                            1 	(obj:0)
f(2,1,3)                                            1 	(obj:0)
f(2,1,4)                                            1 	(obj:0)
f(3,2,3)                                            1 	(obj:0)
f(4,5,4)                                            1 	(obj:0)
f(5,2,4)                                            1 	(obj:0)
f(10,0,1)                                           1 	(obj:0)
f(10,0,2)                                           1 	(obj:0)
f(10,0,3)                                           1 	(obj:0)
f(10,0,4)                                           1 	(obj:0)
z_r(0,)                               1.3072807138134 	(obj:0)
z_r(1,)                               1.3072807138134 	(obj:0)
z                                     1.3072807138134 	(obj:1)
