scenarios/sols/small/emicp_milp/016.out
b'The following solver is parallelized by UG version 0.9.1 [GitHash: ]\n'
b'SCIP version 7.0.2 [precision: 8 byte] [memory: block] [mode: optimized] [LP solver: SoPlex 5.0.2] [GitHash: e9d280a398]\n'
b'Copyright (C) 2002-2020 Konrad-Zuse-Zentrum fuer Informationstechnik Berlin (ZIB)\n'
b'External codes: \n'
b'  Readline 7.0         GNU library for command line editing (gnu.org/s/readline)\n'
b'  SoPlex 5.0.2         Linear Programming Solver developed at Zuse Institute Berlin (soplex.zib.de) [GitHash: e24c304e]\n'
b'  CppAD 20180000.0     Algorithmic Differentiation of C++ algorithms developed by B. Bell (www.coin-or.org/CppAD)\n'
b'  ZLIB 1.2.11          General purpose compression library by J. Gailly and M. Adler (zlib.net)\n'
b'  GMP 6.1.2            GNU Multiple Precision Arithmetic Library developed by T. Granlund (gmplib.org)\n'
b'  ZIMPL 3.4.0          Zuse Institute Mathematical Programming Language developed by T. Koch (zimpl.zib.de)\n'
b'Default LC presolving (default).\n'
b'Original Problem   :\n'
b'  Problem name     : 016\n'
b'  Variables        : 5320 (1200 binary, 0 integer, 0 implicit integer, 4120 continuous)\n'
b'  Constraints      : 13867\n'
b'  Objective sense  : minimize\n'
b'Presolved Problem  :\n'
b'  Variables        : 784 (204 binary, 0 integer, 0 implicit integer, 580 continuous)\n'
b'  Constraints      : 886\n'
b'Constraints        : Number\n'
b'  varbound         : 170 \n'
b'  knapsack         : 6 \n'
b'  setppc           : 55 \n'
b'  linear           : 652 \n'
b'  logicor          : 3 \n'
b'** Instance transfer method used: 0\n'
b'** ParaScipInstance copy does not increase the number of variables. **\n'
b'LC is working with racing ramp-up and with rebuilding tree after racing.\n'
b'                               Nodes    Active                                            \n'
b'     Time          Nodes        Left   Solvers     Best Integer        Best Node       Gap     Best Node(S)    Gap(S)\n'
b'*       0              2           1         8           1.7429           0.9668    80.28%\n'
b'*       1              2           1         8           1.4359           0.9668    48.53%\n'
b'*       1              2           1         8           1.4265           0.9668    47.56%\n'
b'*       1              2           1         8           1.4031           0.9668    45.13%\n'
b'*       4            739         127         8           1.3073           0.9668    35.22%\n'
b'Racing ramp-up finished after 4.53 seconds. Selected strategy 7.\n'
b'        5           2204         424         8           1.3073           0.9668     35.22%           0.9668     35.22%\n'
b'       10           9053         793         8           1.3073           0.9668     35.22%           0.9668     35.22%\n'
b'       14          13478           0         0           1.3073           1.3073      0.00%\n'
b'SCIP Status        : problem is solved\n'
b'Total Time         : 13.83\n'
b'  solving          : 13.83\n'
b'  presolving       : 0.05 (included in solving)\n'
b'B&B Tree           :\n'
b'  nodes (total)    : 13478\n'
b'Solution           :\n'
b'  Solutions found  : 5\n'
b'  Primal Bound     : +1.30728071381340e+00\n'
b'  Dual Bound       : +1.30728071381340e+00\n'
b'Gap                : 0.00000 %\n'
